c --- [ banner ] -------------------------------------------------------------
c 
c CaDiCaL Radically Simplified CDCL SAT Solver
c Copyright (c) 2016-2021 A. Biere, M. Fleury, N. Froleyks
c 
c Version 1.5.2 9c38a080b32c28d805e8e6ca21849856b0cda605
c g++ (Ubuntu 7.5.0-3ubuntu1~18.04) 7.5.0 -Wall -Wextra -O3 -DNDEBUG
c Wed Feb 16 23:15:36 EST 2022 Linux fac-vanhoeve01 5.4.0-99-generic x86_64
c 
c --- [ limit ] --------------------------------------------------------------
c 
c setting time limit to 600 seconds real time (due to '-t 600')
c setting conflict limit to 1000000000 conflicts (due to '1000000000')
c 
c --- [ parsing input ] ------------------------------------------------------
c 
c reading DIMACS file from 'ddfwcnfs/wap03a.col_40.cnf'
c opening file to read 'ddfwcnfs/wap03a.col_40.cnf'
c found 'p cnf 189200 11282890' header
c parsed 11282890 clauses in 6.53 seconds process time
c closing file 'ddfwcnfs/wap03a.col_40.cnf'
c after reading 194993117 bytes 186.0 MB
c 
c --- [ options ] ------------------------------------------------------------
c 
c all options are set to their default value
c 
c --- [ solving ] ------------------------------------------------------------
c 
c time measured in process time since initialization
c 
c  seconds   reductions  redundant   irredundant
c          MB    restarts       trail         variables
c           level   conflicts       glue            remaining
c 
c *  6.53 971  0 0   0    0    0  0% 0 11281290 187600 99%
c {  6.58 973  0 0   0    0    0  0% 0 11281290 187600 99%
c -  8.59 973 40 1   0  300  187  5% 37 11281290 187600 99%
c }  8.78 973 40 1   0 1002  549  5% 37 11281290 187600 99%
c [  8.78 973  0 1   0 1002  549  0% 0 11281290 187600 99%
c O  8.78 973 38 1   0 1003  550  2% 38 11281290 187600 99%
c - 13.94 1232 42 2   1 2133 1125  2% 39 11281290 187600 99%
c ] 14.03 1232 42 2   1 3002 1698  2% 39 11281290 187600 99%
c { 14.03 1232 40 2   1 3002 1698  5% 37 11281290 187600 99%
c F 14.04 1232 40 2   1 3004 1700  5% 37 11281290 187600 99%
c - 18.16 1233 41 3  13 4880 2166  5% 38 11281290 187600 99%
c # 29.90 1228 41 3  13 6005 2860  5% 38 11281290 187600 99%
c } 30.05 1228 46 3  13 7003 3395  5% 37 11281290 187600 99%
c [ 30.05 1228 42 3  13 7003 3395  2% 39 11281290 187600 99%
c - 35.37 1228 45 4  14 8542 2998  2% 39 11281290 187600 99%
c I 35.59 1228 49 4  15 10006 4111  2% 41 11281290 187600 99%
c s 41.04 1229 3661 4  17 11822 4865  9% 52 11281290 187600 99%
c e 66.12 1230 3661 4  17 11822 1924  9% 52 10733267 181195 96%
c s 68.75 1230 3661 4  17 11822 1864  9% 52 10733267 181195 96%
c ^ 71.99 1230 3661 4  17 11822 1864  9% 52 10733267 181195 96%
c 
c  seconds      reductions   redundant    irredundant
c          MB       restarts        trail          variables
c             level     conflicts       glue             remaining
c 
c - 77.81 1152 3451 5  17 13121 2490 11% 52 10733267 181195 96%
c ] 90.54 1233 6361 5  18 15003 3940 18% 62 10733267 181195 96%
c { 90.54 1233 46 5  18 15003 3940  5% 37 10733267 181195 96%
c B 90.63 1233 58 5  18 15010 3947  5% 37 10733267 181195 96%
c - 96.30 1234 70 6  41 18579 4342  5% 38 10733267 181195 96%
c W 102.49 1234 63 6  55 21012 5714  5% 38 10733267 181195 96%
c - 108.32 1234 57 7  64 24944 4873  5% 38 10733267 181195 96%
c F 108.80 1234 54 7  64 28013 6751  5% 38 10733267 181195 96%
c } 121.73 1234 52 7  65 31003 8751  5% 38 10733267 181195 96%
c [ 121.73 1234 6361 7  65 31003 8751 18% 62 10733267 181195 96%
c - 127.05 1234 5647 8  65 32219 6221 16% 60 10733267 181195 96%
c ^ 154.96 1234 4356 8  67 35377 8736 13% 56 10733267 181195 96%
c B 155.14 1234 4160 8  68 36015 9052 13% 55 10733267 181195 96%
c - 161.31 1235 3294 9  71 40402 8117 12% 59 10733267 181195 96%
c W 168.05 1235 2646 9  72 45018 11727 11% 60 10733267 181195 96%
c - 175.16 1237 4834 10  73 49497 9717 16% 70 10733267 181195 96%
c O 189.05 1237 4314 10  74 55020 14151 18% 77 10733267 181195 96%
c - 194.55 1236 3729 11  78 59498 9864 16% 73 10733267 181195 96%
c ] 195.08 1236 3360 11  80 63004 12305 15% 69 10733267 181195 96%
c { 195.08 1236 52 11  80 63004 12305  5% 38 10733267 181195 96%
c 
c  seconds     reductions     redundant    irredundant
c           MB      restarts         trail          variables
c             level     conflicts        glue             remaining
c 
c B 195.47 1236 57 11  80 66022 14473  5% 38 10733267 181195 96%
c - 201.07 1235 125 12  99 70412 9896  5% 38 10733267 181195 96%
c s 201.60 1235 127 12  99 70708 9255  5% 38 10733267 181195 96%
c s 223.92 1235 127 12  99 70708 8269  5% 38 10733267 181195 96%
c ^ 226.98 1235 127 12  99 70708 8269  5% 38 10733267 181195 96%
c W 247.17 1235 166 12 122 78023 12596  5% 38 10733267 181195 96%
c - 252.92 1235 163 13 152 82231 9938  5% 38 10733267 181195 96%
c # 254.49 1235 156 13 179 91024 14992  5% 39 10733267 181195 96%
c - 260.12 1235 149 14 179 94961 11081  5% 38 10733267 181195 96%
c B 273.99 1235 128 14 181 105026 18354  4% 38 10733267 181195 96%
c - 279.61 1235 124 15 211 108599 12286  5% 38 10733267 181195 96%
c s 281.45 1235 110 15 322 117817 16595  4% 38 10733267 181195 96%
c w 293.92 1235 110 15 322 117817 16594  4% 38 10733267 181195 96%
c s 304.29 1235 110 15 322 117817 16114  4% 38 10733267 181195 96%
c ^ 307.44 1235 110 15 322 117817 16114  4% 38 10733267 181195 96%
c W 315.11 1235 107 15 322 120028 17563  4% 38 10733267 181195 96%
c - 320.99 1235 104 16 360 123147 12581  4% 38 10733267 181195 96%
c } 321.52 1235 100 16 394 127004 14642  4% 38 10733267 181195 96%
c [ 321.52 1235 3360 16 394 127004 14642 15% 69 10733267 181195 96%
c B 322.54 1235 2858 16 399 136029 21365 14% 66 10733267 181195 96%
c 
c  seconds       reductions      redundant    irredundant
c           MB        restarts          trail          variables
c              level      conflicts         glue             remaining
c 
c - 328.65 1237 2991 17 400 138604 14452 16% 67 10733267 181195 96%
c W 353.80 1237 2710 17 403 153030 26120 22% 75 10733267 181195 96%
c - 359.21 1240 2659 18 403 154970 17009 22% 75 10733267 181195 96%
c I 361.83 1240 2364 18 406 171031 29280 26% 76 10733267 181195 96%
c - 367.36 1239 2658 19 407 172246 17887 26% 78 10733267 181195 96%
c s 368.80 1239 2618 19 410 176706 21122 24% 80 10733267 181195 96%
c w 381.21 1239 2618 19 410 176706 21122 24% 80 10733267 181195 96%
c s 391.61 1239 2618 19 410 176706 21064 24% 80 10733267 181195 96%
c ^ 394.73 1239 2618 19 410 176706 21064 24% 80 10733267 181195 96%
c B 411.86 1239 3144 19 417 190033 31069 23% 87 10733267 181195 96%
c - 417.10 1241 3219 20 417 190431 18803 23% 86 10733267 181195 96%
c - 424.03 1238 2854 21 425 209524 18847 19% 79 10733267 181195 96%
c W 433.18 1238 2834 21 425 210035 19156 19% 79 10733267 181195 96%
c - 450.90 1237 2192 22 433 229529 17730 15% 72 10733267 181195 96%
c O 451.01 1237 2150 22 433 231036 18809 15% 71 10733267 181195 96%
c s 452.86 1237 1757 22 434 247367 30387 13% 66 10733267 181195 96%
c s 470.40 1237 1757 22 434 247367 30094 13% 66 10733267 181195 96%
c - 476.82 1237 1693 23 435 250442 19464 12% 65 10733267 181195 96%
c B 477.04 1237 1642 23 435 253039 21135 12% 64 10733267 181195 96%
c ] 477.20 1237 1610 23 435 255004 22696 12% 64 10733267 181195 96%
c 
c  seconds      reductions      redundant    irredundant
c           MB       restarts          trail          variables
c              level     conflicts         glue             remaining
c 
c { 477.20 1237 100 23 435 255004 22696  4% 38 10733267 181195 96%
c - 482.77 1237 86 24 498 272263 19458  4% 39 10733267 181195 96%
c F 492.20 1237 84 24 502 276041 21671  4% 39 10733267 181195 96%
c - 497.71 1237 73 25 551 294994 20469  5% 38 10733267 181195 96%
c B 498.23 1237 71 25 555 300045 23825  5% 38 10733267 181195 96%
c - 504.20 1237 65 26 670 318633 20681  5% 38 10733267 181195 96%
c W 515.39 1237 63 26 697 325047 24832  5% 39 10733267 181195 96%
c - 534.07 1237 67 27 715 343183 21278  5% 38 10733267 181195 96%
c # 535.19 1237 68 27 791 351049 26107  5% 39 10733267 181195 96%
c - 541.58 1238 63 28 911 368643 22517  5% 39 10733267 181195 96%
c B 542.97 1238 61 28 914 378050 28985  5% 39 10733267 181195 96%
c - 561.58 1237 59 29 1077 395011 22751  5% 39 10733267 181195 96%
c W 577.20 1237 57 29 1154 406052 29623  5% 39 10733267 181195 96%
c - 583.37 1238 54 30 1197 422291 23133  5% 39 10733267 181195 96%
c F 585.52 1238 53 30 1203 435053 31489  5% 39 10733267 181195 96%
c - 592.47 1238 51 31 1255 450476 25699  4% 39 10733267 181195 96%
c } 600.58 1238 51 31 1255 455014 28837  4% 39 10733267 181195 96%
c ? 600.58 1238 51 31 1255 455014 28837  4% 39 10733267 181195 96%
c 
c --- [ result ] -------------------------------------------------------------
c 
c UNKNOWN
c 
c --- [ run-time profiling ] -------------------------------------------------
c 
c process time taken by individual solving procedures
c (percentage relative to process time for solving)
c 
c       319.49   53.78% search
c       274.56   46.22% simplify
c       128.30   21.60% unstable
c       124.03   20.88% stable
c        73.71   12.41% ternary
c        67.10   11.30% walk
c        58.80    9.90% elim
c        51.52    8.67% vivify
c        12.69    2.14% subsume
c        11.18    1.88% probe
c         6.53    1.10% parse
c         0.05    0.01% lucky
c   =================================
c       594.05   98.91% solve
c 
c last line shows process time for solving
c (percentage relative to total process time)
c 
c --- [ statistics ] ---------------------------------------------------------
c 
c chronological:             81863        17.99 %  of conflicts
c conflicts:                455014       765.95    per second
c decisions:               1493595      2514.26    per second
c eliminated:                 6405         3.39 %  of all variables
c fixed:                      1600         0.85 %  of all variables
c learned:                  450773        99.07 %  per conflict
c learned_lits:           55421700       100.00 %  learned literals
c minimized:                     0         0.00 %  learned literals
c shrunken:               28660961        51.71 %  learned literals
c minishrunken:             789823         1.43 %  learned literals
c propagations:          162964539         0.27 M  per second
c reduced:                  272986        60.00 %  per conflict
c rephased:                     29     15690.14    interval
c restarts:                   1255       362.56    interval
c stabilizing:                   4        37.36 %  of conflicts
c subsumed:                 145990         0.61 %  of all clauses
c strengthened:               9066         0.04 %  of all clauses
c vivified:                     23         0.00 %  of all clauses
c walked:                        8     56876.75    interval
c weakened:                 701125         2.99    average size
c 
c seconds are measured in process time for solving
c 
c --- [ resources ] ----------------------------------------------------------
c 
c total process time since initialization:       600.58    seconds
c total real time since initialization:          600.61    seconds
c maximum resident set size of process:         1596.99    MB
c 
c --- [ shutting down ] ------------------------------------------------------
c 
c exit 0
